
Gurobi 11.0.1 (win64) logging started Thu May 16 18:44:44 2024

Set parameter LogFile to value "output/solver_log12.txt"
Gurobi Optimizer version 11.0.1 build v11.0.1rc0 (win64 - Windows 11.0 (22631.2))

CPU model: 11th Gen Intel(R) Core(TM) i7-1165G7 @ 2.80GHz, instruction set [SSE2|AVX|AVX2|AVX512]
Thread count: 4 physical cores, 8 logical processors, using up to 8 threads

Optimize a model with 4670 rows, 1125 columns and 86347 nonzeros
Model fingerprint: 0x5f6388da
Variable types: 568 continuous, 557 integer (557 binary)
Coefficient statistics:
  Matrix range     [4e-01, 1e+05]
  Objective range  [1e+00, 1e+02]
  Bounds range     [1e+00, 1e+00]
  RHS range        [1e-02, 1e+05]

User MIP start produced solution with objective 40201.2 (0.01s)
User MIP start produced solution with objective 40201.2 (0.01s)
Loaded user MIP start with objective 40201.2

Presolve removed 693 rows and 373 columns
Presolve time: 0.10s
Presolved: 3977 rows, 752 columns, 75102 nonzeros
Variable types: 525 continuous, 227 integer (223 binary)

Root relaxation: objective 4.749988e+04, 1529 iterations, 0.09 seconds (0.16 work units)

    Nodes    |    Current Node    |     Objective Bounds      |     Work
 Expl Unexpl |  Obj  Depth IntInf | Incumbent    BestBd   Gap | It/Node Time

     0     0 47499.8824    0   42 40201.1911 47499.8824  18.2%     -    0s
     0     0 46273.3171    0   40 40201.1911 46273.3171  15.1%     -    0s
     0     0 46149.9528    0   40 40201.1911 46149.9528  14.8%     -    0s
     0     0 45830.5160    0   63 40201.1911 45830.5160  14.0%     -    0s
     0     0 45654.1225    0   64 40201.1911 45654.1225  13.6%     -    0s
     0     0 44688.5141    0   61 40201.1911 44688.5141  11.2%     -    0s
     0     0 44688.5141    0   63 40201.1911 44688.5141  11.2%     -    0s
     0     0 44688.5141    0   62 40201.1911 44688.5141  11.2%     -    1s
     0     0 44688.5141    0   56 40201.1911 44688.5141  11.2%     -    1s
     0     0 44688.5141    0   59 40201.1911 44688.5141  11.2%     -    1s
     0     0 44688.5141    0   48 40201.1911 44688.5141  11.2%     -    1s
     0     0 44688.5141    0   49 40201.1911 44688.5141  11.2%     -    1s
     0     0 44688.5141    0   60 40201.1911 44688.5141  11.2%     -    1s
     0     0 44688.5141    0   63 40201.1911 44688.5141  11.2%     -    1s
     0     0 44688.5141    0   62 40201.1911 44688.5141  11.2%     -    1s
     0     0 44688.5141    0   60 40201.1911 44688.5141  11.2%     -    1s
     0     0 44583.8932    0   60 40201.1911 44583.8932  10.9%     -    1s
     0     0 44583.8932    0   63 40201.1911 44583.8932  10.9%     -    1s
     0     0 44422.4002    0   63 40201.1911 44422.4002  10.5%     -    1s
     0     0 44422.4002    0   71 40201.1911 44422.4002  10.5%     -    2s
     0     0 44422.4002    0   69 40201.1911 44422.4002  10.5%     -    2s
     0     0 44422.4002    0   67 40201.1911 44422.4002  10.5%     -    2s
     0     0 44422.4002    0   64 40201.1911 44422.4002  10.5%     -    2s
     0     0 44422.4002    0   72 40201.1911 44422.4002  10.5%     -    2s
     0     0 44422.4002    0   71 40201.1911 44422.4002  10.5%     -    2s
     0     0 44422.4002    0   69 40201.1911 44422.4002  10.5%     -    2s
     0     0 44422.4002    0   67 40201.1911 44422.4002  10.5%     -    2s
     0     0 44422.4002    0   71 40201.1911 44422.4002  10.5%     -    2s
     0     0 44422.4002    0   71 40201.1911 44422.4002  10.5%     -    2s
     0     0 44422.4002    0   71 40201.1911 44422.4002  10.5%     -    2s
     0     2 44422.4002    0   71 40201.1911 44422.4002  10.5%     -    2s
    91    39 40318.4439   17   15 40201.1911 44334.1593  10.3%   425    5s
H  820   379                    40201.260848 41673.1489  3.66%   172    9s
H  821   379                    40201.435853 41673.1489  3.66%   173    9s
   828   404     cutoff   10      40201.4359 40405.9514  0.51%   173   10s
H  905   431                    40210.498241 40405.9514  0.49%   165   10s
H  977   356                    40213.048342 40379.8274  0.41%   155   11s

Cutting planes:
  Gomory: 5
  Implied bound: 13
  MIR: 74
  RLT: 3
  Relax-and-lift: 2
  BQP: 1

Explored 1150 nodes (171799 simplex iterations) in 11.57 seconds (22.99 work units)
Thread count was 8 (of 8 available processors)

Solution count 6: 40213 40213 40210.5 ... 40201.2

Optimal solution found (tolerance 1.00e-04)
Best objective 4.021304834180e+04, best bound 4.021470435826e+04, gap 0.0041%
